50
8423

260 567
376 408
435 77
767 623
73 435
286 355
713 266
624 925
327 969
310 915
466 9
187 908
767 995
858 829
667 16
65 906
176 68
270 502
584 287
82 318
327 786
317 688
106 800
150 447
407 899
590 872
675 717
470 559
75 553
965 877
227 541
882 421
90 206
491 377
995 25
751 777
595 439
361 666
322 191
911 617
208 896
746 195
86 660
239 499
567 612
953 374
735 841
577 192
285 73
769 145
